language ESSENCE' 1.0
letting values be [[7, 0, 0, 0, 0, 0, 6, 5, 0], [0, 0, 0, 5, 0, 6, 0, 7, 8], [6, 4, 0, 7, 0, 9, 0, 0, 0], [0, 0, 0, 0, 6, 0, 0, 0, 7], [2, 8, 3, 1, 9, 7, 0, 4, 6], [9, 7, 0, 8, 0, 5, 3, 2, 1], [5, 0, 1, 3, 7, 2, 0, 0, 0], [0, 0, 2, 0, 0, 0, 7, 6, 5], [0, 0, 7, 6, 0, 4, 2, 1, 3]]